100
128
64
14
45
60
3
64
42
36
64
46
49
26
37
30
44
8
27
12
14
53
55
17
54
42
17
34
25
58
27
4
4
37
59
32
49
42
53
20
3
29
14
27
24
32
62
17
43
25
31
19
14
3
1
48
12
28
53
55
42
12
34
32
4
34
40
34
25
3
39
62
61
36
31
31
39
59
57
33
58
18
16
22
34
23
40
45
32
21
53
17
61
22
28
38
33
43
17
52
5
5